(set-logic HORN)
(declare-fun state (Int (Array Int Int) Int Int Int Int Int (Array Int Int) Bool Bool Bool Int Int Int (Array Int Int)) Bool)
(assert (forall ((|A_7| Int) (|B_6| (Array Int Int)) (|T_5| Int) (|F_6| Int) (|J_6| Int) (|E_6| Int) (|L_6| Int) (|.y.12| (Array Int Int)) (|.loc.13| Bool) (|.loc.14| Bool) (|.loc.15| Bool) (|K| Int) (|O| Int) (|Y_2| Int) (|B| (Array Int Int)) (|.loc.26| Bool) (|.loc.25| Bool) (|.y.19| Int) (|.y.21| Int) (|.y.22| Int) (|.y.20| Int) (|.y.16| Int) (|.y.17| (Array Int Int)) (|.y.18| Int) (|.loc.24| Bool) (|.y.23| (Array Int Int)) (|.xtv.1| Int) (|.xtv.2| Int) (|.xtv.3| Int) (|.xtv.4| (Array Int Int))) (=> (and (and (not .loc.13) (not .loc.14)) (not .loc.15)) (state |A_7| |B_6| |T_5| |F_6| |J_6| |E_6| |L_6| |.y.12| |.loc.13| |.loc.14| |.loc.15| |K| |O| |Y_2| |B|))))
(assert (forall ((|A_7| Int) (|B_6| (Array Int Int)) (|T_5| Int) (|F_6| Int) (|J_6| Int) (|E_6| Int) (|L_6| Int) (|.y.12| (Array Int Int)) (|.loc.13| Bool) (|.loc.14| Bool) (|.loc.15| Bool) (|K| Int) (|O| Int) (|Y_2| Int) (|B| (Array Int Int)) (|.loc.26| Bool) (|.loc.25| Bool) (|.y.19| Int) (|.y.21| Int) (|.y.22| Int) (|.y.20| Int) (|.y.16| Int) (|.y.17| (Array Int Int)) (|.y.18| Int) (|.loc.24| Bool) (|.y.23| (Array Int Int)) (|.xtv.1| Int) (|.xtv.2| Int) (|.xtv.3| Int) (|.xtv.4| (Array Int Int))) (=> (and (state |A_7| |B_6| |T_5| |F_6| |J_6| |E_6| |L_6| |.y.12| |.loc.13| |.loc.14| |.loc.15| |K| |O| |Y_2| |B|) (let ((.def_25 (not .loc.13))) (let ((.def_26 (not .loc.14))) (let ((.def_34 (ite (= F_6 97) 1 0))) (let ((.def_37 (ite (= F_6 65) 1 0))) (let ((.def_40 (* (- 1) Y_2))) (let ((.def_48 (= T_5 0))) (let ((.def_50 (not (<= 0 L_6)))) (let ((.def_54 (not (<= (- 1) (+ J_6 (* (- 1) L_6)))))) (let ((.def_56 (<= (- 1) J_6))) (let ((.def_61 (and (or (or .def_50 .def_54) (not .def_56)) (or .def_56 (and .def_50 .def_54))))) (let ((.def_62 (not .def_61))) (let ((.def_74 (<= E_6 0))) (let ((.def_79 (ite (= T_5 65) 1 0))) (let ((.def_81 (ite (= T_5 97) 1 0))) (let ((.def_90 (not .def_74))) (let ((.def_96 (not .loc.25))) (let ((.def_108 (not .loc.26))) (let ((.def_113 (= F_6 0))) (let ((.def_117 (= .y.20 0))) (let ((.def_121 (= A_7 .y.16))) (let ((.def_124 (= B_6 .y.17))) (let ((.def_127 (= T_5 .y.18))) (let ((.def_131 (not .loc.24))) (let ((.def_135 (and .loc.13 .loc.24))) (let ((.def_144 (not .def_48))) (let ((.def_146 (= .y.19 0))) (let ((.def_148 (= A_7 .y.21))) (let ((.def_151 (= B_6 .y.23))) (let ((.def_156 (not (<= Y_2 0)))) (let ((.def_157 (<= A_7 0))) (let ((.def_182 (= (+ J_6 (* (- 1) .y.20)) (- 1)))) (let ((.def_185 (not .def_157))) (let ((.def_221 (select .y.12 Y_2))) (let ((.def_261 (<= .y.16 0))) (and (not .loc.15) (or (or (or (or (or (or (and (or (and (or (and .def_25 (and (= (+ E_6 (+ .def_40 (+ .def_34 .def_37))) 0) (and (not (= Y_2 0)) (and .def_48 .def_62)))) (and (and (= (select .y.12 (+ (+ J_6 E_6) 1)) 0) (and (or (not (<= (+ J_6 E_6) (- 1))) .def_74) (and (not (= A_7 Y_2)) (and .loc.13 (= (+ F_6 (+ .def_40 (+ .def_79 .def_81))) 0))))) .def_90)) (and (and .loc.14 .loc.26) .def_96)) (and (and (and (and (= T_5 .y.19) (and (and (= .y.21 0) (and (and (not (= .y.22 0)) (and (= J_6 .y.22) (and .def_26 (and (and .loc.13 .loc.25) .def_108)))) .def_113)) .def_117)) .def_121) .def_124) .def_127)) .def_131) (and (and (and (and (and (= .y.16 0) (and (= J_6 0) (and .def_127 (and .def_117 (and .def_113 (and .def_26 (and .def_108 (and .loc.25 .def_135)))))))) .def_144) .def_146) .def_148) .def_151)) (and (= L_6 .y.22) (and (or .def_156 .def_157) (and (= (+ A_7 (+ J_6 .def_40)) (- 1)) (and (and (= .y.19 (select B_6 Y_2)) (and (and (= (+ E_6 (+ .def_34 (+ .def_37 (* (- 1) .y.21)))) 0) (and .def_127 (and .def_124 (and .def_121 (and .def_108 (and .def_131 (and .loc.25 (and .def_25 (and .loc.14 .def_61))))))))) .def_182)) .def_185))))) (and (= (+ E_6 (+ .def_34 (+ .def_37 (* (- 1) .y.16)))) 0) (and .def_151 (and .def_148 (and .def_146 (and .def_144 (and .def_127 (and .def_117 (and .def_108 (and .loc.25 (and .loc.24 (and .def_25 (and .loc.14 .def_62))))))))))))) (and (= .y.12 .y.23) (and (= E_6 .y.21) (and (= (+ J_6 (+ E_6 .def_40)) (- 1)) (and (or .def_74 .def_156) (and (not (= .def_221 0)) (and (= .y.18 .def_221) (and (= (+ F_6 (+ .def_79 (+ .def_81 (* (- 1) .y.19)))) 0) (and .def_182 (and .def_121 (and .def_108 (and .def_90 (and .loc.25 (and .loc.24 (and .loc.13 .loc.14))))))))))))))) (and (= .y.17 (store (store (store (store (store B .y.16 .y.18) (+ .y.16 1) Y_2) (+ .y.16 2) K) (+ .y.16 3) O) (+ .y.16 4) 0)) (and (not .def_261) (and (or .def_261 (not (<= .y.16 (- 1)))) (and (or .def_261 (not (<= .y.16 (- 2)))) (and (or .def_261 (not (<= .y.16 (- 4)))) (and (or .def_261 (not (<= .y.16 (- 3)))) (and (= .y.19 .y.18) (and .def_117 (and .def_26 (and .def_108 (and .def_96 (and .def_25 .loc.24))))))))))))) (and (or .def_157 (not (<= K 0))) (and (not .def_113) (and (= (+ A_7 (+ J_6 (* (- 1) K))) (- 1)) (and (= .y.19 (select B_6 K)) (and .def_185 (and .def_182 (and .def_127 (and .def_124 (and .def_121 (and .def_26 (and .def_108 (and .def_96 .def_135))))))))))))))))))))))))))))))))))))))))))))))))) (state |.y.16| |.y.17| |.y.18| |.y.19| |.y.20| |.y.21| |.y.22| |.y.23| |.loc.24| |.loc.25| |.loc.26| |.xtv.1| |.xtv.2| |.xtv.3| |.xtv.4|))))
(assert (forall ((|A_7| Int) (|B_6| (Array Int Int)) (|T_5| Int) (|F_6| Int) (|J_6| Int) (|E_6| Int) (|L_6| Int) (|.y.12| (Array Int Int)) (|.loc.13| Bool) (|.loc.14| Bool) (|.loc.15| Bool) (|K| Int) (|O| Int) (|Y_2| Int) (|B| (Array Int Int)) (|.loc.26| Bool) (|.loc.25| Bool) (|.y.19| Int) (|.y.21| Int) (|.y.22| Int) (|.y.20| Int) (|.y.16| Int) (|.y.17| (Array Int Int)) (|.y.18| Int) (|.loc.24| Bool) (|.y.23| (Array Int Int)) (|.xtv.1| Int) (|.xtv.2| Int) (|.xtv.3| Int) (|.xtv.4| (Array Int Int))) (=> (state |A_7| |B_6| |T_5| |F_6| |J_6| |E_6| |L_6| |.y.12| |.loc.13| |.loc.14| |.loc.15| |K| |O| |Y_2| |B|) (not (and .loc.15 (and (not .loc.13) (not .loc.14)))))))
(check-sat)
